15 2 
3785	3785	
410	699	939	
232	842	1125	
45	381	507	
893	237	360	
982	904	1798	
486	750	1415	
333	533	945	
14	55	60	
395	857	918	
774	117	180	
212	534	873	
557	802	1281	
128	71	122	
894	454	489	
416	335	412	
